NAME: line_20_3
TYPE: TSP
COMMENT: line_20_3
DIMENSION: 20
EDGE_WEIGHT_TYPE: EUC_2D
NODE_COORD_SECTION
1 0.0 80.0
2 0.0 112.0
3 0.0 14.0
4 0.0 61.0
5 0.0 33.0
6 0.0 141.0
7 0.0 35.0
8 0.0 19.0
9 0.0 73.0
10 0.0 102.0
11 0.0 32.0
12 0.0 160.0
13 0.0 75.0
14 0.0 195.0
15 0.0 191.0
16 0.0 149.0
17 0.0 67.0
18 0.0 114.0
19 0.0 61.0
20 0.0 98.0
